(set-info :smt-lib-version 2.6)
(set-logic QF_S)
(set-info :source |
Generated by: Oliver Markgraf, Hongjian Jiang, Daniel Stan, Anthony W. Lin, Philipp Ruemmer
Generated on: 2025-04-08
Application: Using String Solvers to solve RMC problems encoded as CHC over Strings
Target solver: cvc5, OSTRICH, Z3, Z3alpha, Z3-noodler
Time limit: 60.0
Benchmarks are extracted by running HornStr https://arg-git.informatik.uni-kl.de/pub/string-chc-lib on all benchmarks
provided in the repository and gathering the string queries sent to the string solvers.
|)
(set-info :license "https://creativecommons.org/licenses/by/4.0/")
(set-info :category "industrial")
(declare-fun varout () String)
(assert (let ((a!1 (re.* (re.union (re.union (str.to_re "b") (str.to_re "n"))
                           (str.to_re "r")))))
  (str.in_re varout a!1)))
(declare-fun varin () String)
(assert (let ((a!1 (re.* (re.union (re.union (str.to_re "b") (str.to_re "n"))
                           (str.to_re "r")))))
  (str.in_re varin a!1)))
(declare-fun X () String)
(declare-fun isin () Bool)
(declare-fun isout () Bool)
(assert (let ((a!1 (re.++ (re.++ (str.to_re "rn") (re.* (str.to_re "nn")))
                  (str.to_re "b"))))
  (or (and (str.in_re X a!1) (not isin) (= X varout) isout))))
(push 1)
(assert (str.in_re varout re.none))
(set-info :status unknown)
(check-sat)
(pop 1)
(push 1)
(assert (str.in_re varout re.none))
(set-info :status unknown)
(check-sat)
(pop 1)
(push 1)
(assert (let ((a!1 (re.++ (re.* (re.union (str.to_re "n") (str.to_re "r")))
                  (str.to_re "b"))))
(let ((a!2 (re.union (str.to_re "b")
                     (re.++ (re.union (str.to_re "n") (str.to_re "r")) a!1))))
(let ((a!3 (re.++ (re.* (re.union (str.to_re "n") (str.to_re "r"))) a!2)))
(let ((a!4 (re.* (re.++ (re.union (str.to_re "b") (str.to_re "r")) a!3)))
      (a!11 (re.++ (re.union (re.union (str.to_re "b") (str.to_re "n"))
                             (str.to_re "r"))
                   a!3)))
(let ((a!5 (re.++ (re.++ (re.union (str.to_re "b") (str.to_re "r")) a!3)
                  (re.++ a!4 (str.to_re "n")))))
(let ((a!6 (re.++ a!3 (re.++ a!4 (re.union (str.to_re "n") a!5))))
      (a!7 (re.++ (re.++ (str.to_re "b") a!3)
                  (re.++ a!4 (re.union (str.to_re "n") a!5))))
      (a!12 (re.++ a!11 (re.++ a!4 (re.union (str.to_re "n") a!5)))))
(let ((a!8 (re.++ (re.* (re.union (str.to_re "n") a!7)) (str.to_re "r"))))
(let ((a!9 (re.union (str.to_re "r") (re.++ (re.union (str.to_re "n") a!7) a!8))))
(let ((a!10 (re.++ (re.* (re.union (str.to_re "n") a!7)) a!9)))
(let ((a!13 (re.union (str.to_re "")
                      (re.++ (re.++ a!12 a!10) (re.* (re.++ a!12 a!10))))))
(let ((a!14 (re.++ (re.++ a!6 a!10) (re.++ (re.* (re.++ a!12 a!10)) a!13))))
  (str.in_re varout a!14)))))))))))))
(set-info :status unknown)
(check-sat)
(pop 1)
(push 1)
(assert (let ((a!1 (re.++ (str.to_re "n")
                  (re.++ (re.* (str.to_re "n")) (str.to_re "r")))))
(let ((a!2 (re.++ (re.++ (str.to_re "b") (str.to_re "n"))
                  (re.++ (re.* (str.to_re "n")) (re.union (str.to_re "r") a!1)))))
  (str.in_re varout a!2))))
(set-info :status unknown)
(check-sat)
(pop 1)
(push 1)
(assert (let ((a!1 (re.++ (str.to_re "n")
                  (re.++ (re.* (str.to_re "n")) (str.to_re "r")))))
(let ((a!2 (re.++ (re.++ (str.to_re "b") (str.to_re "n"))
                  (re.++ (re.* (str.to_re "n")) (re.union (str.to_re "r") a!1)))))
  (str.in_re varout a!2))))
(set-info :status unknown)
(check-sat)
(pop 1)
(push 1)
(assert (let ((a!1 (re.++ (str.to_re "n")
                  (re.++ (re.* (str.to_re "n")) (str.to_re "r"))))
      (a!3 (re.union (re.union (str.to_re "n") (str.to_re "r"))
                     (re.++ (str.to_re "b")
                            (re.union (str.to_re "b") (str.to_re "r")))))
      (a!4 (re.++ (re.* (re.union (str.to_re "n") (str.to_re "r")))
                  (str.to_re "b"))))
(let ((a!2 (re.++ (re.++ (str.to_re "b") (str.to_re "n"))
                  (re.++ (re.* (str.to_re "n")) (re.union (str.to_re "r") a!1))))
      (a!5 (re.union (str.to_re "b")
                     (re.++ (re.union (str.to_re "n") (str.to_re "r")) a!4))))
(let ((a!6 (re.++ (re.* (re.union (str.to_re "n") (str.to_re "r"))) a!5)))
(let ((a!7 (re.++ (str.to_re "n")
                  (re.++ (re.* (str.to_re "n")) (re.++ (str.to_re "b") a!6))))
      (a!10 (re.* (re.union (str.to_re "n") (re.++ (str.to_re "b") a!6))))
      (a!13 (re.++ (re.union (re.union (str.to_re "b") (str.to_re "n"))
                             (str.to_re "r"))
                   a!6)))
(let ((a!8 (re.++ (re.* (str.to_re "n"))
                  (re.union (re.++ (str.to_re "b") a!6) a!7)))
      (a!11 (re.++ (re.union (str.to_re "n") (re.++ (str.to_re "b") a!6))
                   (re.++ a!10 (str.to_re "r")))))
(let ((a!9 (re.union (re.++ a!3 a!6)
                     (re.++ (re.++ (str.to_re "b") (str.to_re "n")) a!8)))
      (a!14 (re.++ a!13 (re.++ a!10 (re.union (str.to_re "r") a!11))))
      (a!15 (re.++ (re.++ (re.union (str.to_re "b") (str.to_re "r")) a!6)
                   (re.++ a!10 (re.union (str.to_re "r") a!11)))))
(let ((a!12 (re.++ a!9 (re.++ a!10 (re.union (str.to_re "r") a!11))))
      (a!16 (re.* (re.union a!15 (re.++ (str.to_re "n") a!14)))))
(let ((a!17 (re.++ (re.union a!15 (re.++ (str.to_re "n") a!14))
                   (re.++ a!16 (str.to_re "n")))))
(let ((a!18 (re.++ (re.union a!12 (re.++ a!2 a!14))
                   (re.++ a!16 (re.union (str.to_re "n") a!17)))))
  (str.in_re varout (re.union a!2 a!18))))))))))))
(set-info :status unknown)
(check-sat)
(pop 1)
(push 1)
(assert (let ((a!1 (re.++ (str.to_re "n")
                  (re.++ (re.* (str.to_re "n")) (str.to_re "r"))))
      (a!3 (re.union (re.union (str.to_re "n") (str.to_re "r"))
                     (re.++ (str.to_re "b")
                            (re.union (str.to_re "b") (str.to_re "r")))))
      (a!4 (re.++ (str.to_re "r")
                  (re.++ (re.* (str.to_re "r")) (str.to_re "b"))))
      (a!12 (re.++ (str.to_re "r")
                   (re.++ (re.* (str.to_re "r")) (str.to_re "n")))))
(let ((a!2 (re.++ (re.++ (str.to_re "b") (str.to_re "n"))
                  (re.++ (re.* (str.to_re "n")) (re.union (str.to_re "r") a!1))))
      (a!5 (re.++ a!3
                  (re.++ (re.* (str.to_re "r")) (re.union (str.to_re "b") a!4))))
      (a!6 (re.++ (str.to_re "b")
                  (re.++ (re.* (str.to_re "r")) (re.union (str.to_re "b") a!4))))
      (a!13 (re.++ a!3
                   (re.++ (re.* (str.to_re "r"))
                          (re.union (str.to_re "n") a!12))))
      (a!14 (re.++ (str.to_re "b")
                   (re.++ (re.* (str.to_re "r"))
                          (re.union (str.to_re "n") a!12))))
      (a!20 (re.++ (re.union (re.union (str.to_re "b") (str.to_re "n"))
                             (str.to_re "r"))
                   (re.++ (re.* (str.to_re "r"))
                          (re.union (str.to_re "n") a!12))))
      (a!21 (re.++ (re.union (re.union (str.to_re "b") (str.to_re "n"))
                             (str.to_re "r"))
                   (re.++ (re.* (str.to_re "r")) (re.union (str.to_re "b") a!4))))
      (a!28 (re.++ (re.union (str.to_re "b") (str.to_re "r"))
                   (re.++ (re.* (str.to_re "r")) (re.union (str.to_re "b") a!4))))
      (a!29 (re.++ (re.union (str.to_re "b") (str.to_re "r"))
                   (re.++ (re.* (str.to_re "r"))
                          (re.union (str.to_re "n") a!12)))))
(let ((a!7 (re.++ (str.to_re "n") (re.++ (re.* (str.to_re "n")) a!6)))
      (a!9 (re.++ (re.* (re.union (str.to_re "n") a!6)) (str.to_re "r")))
      (a!15 (re.++ (str.to_re "n") (re.++ (re.* (str.to_re "n")) a!14)))
      (a!17 (re.++ (re.* (re.union (str.to_re "n") a!6)) a!14)))
(let ((a!8 (re.++ (re.++ (str.to_re "b") (str.to_re "n"))
                  (re.++ (re.* (str.to_re "n")) (re.union a!6 a!7))))
      (a!10 (re.union (str.to_re "r")
                      (re.++ (re.union (str.to_re "n") a!6) a!9)))
      (a!16 (re.++ (re.++ (str.to_re "b") (str.to_re "n"))
                   (re.++ (re.* (str.to_re "n")) (re.union a!14 a!15))))
      (a!18 (re.union a!14 (re.++ (re.union (str.to_re "n") a!6) a!17))))
(let ((a!11 (re.++ (re.* (re.union (str.to_re "n") a!6)) a!10))
      (a!19 (re.++ (re.* (re.union (str.to_re "n") a!6)) a!18)))
(let ((a!22 (re.++ (re.* (re.union a!20 (re.++ a!21 a!19))) (re.++ a!21 a!11))))
(let ((a!23 (re.union (re.++ a!21 a!11)
                      (re.++ (re.union a!20 (re.++ a!21 a!19)) a!22))))
(let ((a!24 (re.++ (re.* (re.union a!20 (re.++ a!21 a!19))) a!23)))
(let ((a!25 (re.++ (re.union (re.union a!13 a!16)
                             (re.++ (re.union a!5 a!8) a!19))
                   a!24))
      (a!26 (re.union (re.++ a!21 a!11)
                      (re.++ (re.union a!20 (re.++ a!21 a!19)) a!24)))
      (a!30 (re.union (re.++ a!28 a!11)
                      (re.++ (re.union a!29 (re.++ a!28 a!19)) a!24))))
(let ((a!27 (re.union (re.union (re.++ (re.union a!5 a!8) a!11) a!25)
                      (re.++ a!2 a!26)))
      (a!31 (re.* (re.union a!30 (re.++ (str.to_re "n") a!26)))))
(let ((a!32 (re.++ (re.union a!30 (re.++ (str.to_re "n") a!26))
                   (re.++ a!31 (str.to_re "n")))))
(let ((a!33 (re.++ a!27 (re.++ a!31 (re.union (str.to_re "n") a!32)))))
  (str.in_re varout (re.union a!2 a!33)))))))))))))))
(set-info :status unknown)
(check-sat)
(pop 1)
(push 1)
(assert (let ((a!1 (re.++ (str.to_re "n")
                  (re.++ (re.* (str.to_re "n")) (str.to_re "r"))))
      (a!3 (re.union (re.union (str.to_re "n") (str.to_re "r"))
                     (re.++ (str.to_re "b")
                            (re.union (str.to_re "b") (str.to_re "r")))))
      (a!4 (re.++ (str.to_re "r")
                  (re.++ (re.* (str.to_re "r")) (str.to_re "b"))))
      (a!12 (re.++ (str.to_re "r")
                   (re.++ (re.* (str.to_re "r")) (str.to_re "n")))))
(let ((a!2 (re.++ (re.++ (str.to_re "b") (str.to_re "n"))
                  (re.++ (re.* (str.to_re "n")) (re.union (str.to_re "r") a!1))))
      (a!5 (re.++ a!3
                  (re.++ (re.* (str.to_re "r")) (re.union (str.to_re "b") a!4))))
      (a!6 (re.++ (str.to_re "b")
                  (re.++ (re.* (str.to_re "r")) (re.union (str.to_re "b") a!4))))
      (a!13 (re.++ a!3
                   (re.++ (re.* (str.to_re "r"))
                          (re.union (str.to_re "n") a!12))))
      (a!14 (re.++ (str.to_re "b")
                   (re.++ (re.* (str.to_re "r"))
                          (re.union (str.to_re "n") a!12))))
      (a!20 (re.++ (re.union (str.to_re "n") (str.to_re "r"))
                   (re.++ (re.* (str.to_re "r"))
                          (re.union (str.to_re "n") a!12))))
      (a!21 (re.++ (re.union (str.to_re "n") (str.to_re "r"))
                   (re.++ (re.* (str.to_re "r")) (re.union (str.to_re "b") a!4))))
      (a!26 (re.++ (re.union (re.union (str.to_re "b") (str.to_re "n"))
                             (str.to_re "r"))
                   (re.++ (re.* (str.to_re "r")) (re.union (str.to_re "b") a!4))))
      (a!27 (re.++ (re.union (re.union (str.to_re "b") (str.to_re "n"))
                             (str.to_re "r"))
                   (re.++ (re.* (str.to_re "r"))
                          (re.union (str.to_re "n") a!12))))
      (a!30 (re.++ (re.union (str.to_re "b") (str.to_re "r"))
                   (re.++ (re.* (str.to_re "r")) (re.union (str.to_re "b") a!4))))
      (a!31 (re.++ (re.union (str.to_re "b") (str.to_re "r"))
                   (re.++ (re.* (str.to_re "r"))
                          (re.union (str.to_re "n") a!12)))))
(let ((a!7 (re.++ (str.to_re "n") (re.++ (re.* (str.to_re "n")) a!6)))
      (a!9 (re.++ (re.* (re.union (str.to_re "n") a!6)) (str.to_re "r")))
      (a!15 (re.++ (str.to_re "n") (re.++ (re.* (str.to_re "n")) a!14)))
      (a!17 (re.++ (re.* (re.union (str.to_re "n") a!6)) a!14)))
(let ((a!8 (re.++ (re.++ (str.to_re "b") (str.to_re "n"))
                  (re.++ (re.* (str.to_re "n")) (re.union a!6 a!7))))
      (a!10 (re.union (str.to_re "r")
                      (re.++ (re.union (str.to_re "n") a!6) a!9)))
      (a!16 (re.++ (re.++ (str.to_re "b") (str.to_re "n"))
                   (re.++ (re.* (str.to_re "n")) (re.union a!14 a!15))))
      (a!18 (re.union a!14 (re.++ (re.union (str.to_re "n") a!6) a!17))))
(let ((a!11 (re.++ (re.* (re.union (str.to_re "n") a!6)) a!10))
      (a!19 (re.++ (re.* (re.union (str.to_re "n") a!6)) a!18)))
(let ((a!22 (re.++ (re.* (re.union a!20 (re.++ a!21 a!19))) (re.++ a!21 a!11)))
      (a!36 (re.++ (re.* (re.union a!20 (re.++ a!21 a!19))) (str.to_re "b"))))
(let ((a!23 (re.union (re.++ a!21 a!11)
                      (re.++ (re.union a!20 (re.++ a!21 a!19)) a!22)))
      (a!37 (re.union (str.to_re "b")
                      (re.++ (re.union a!20 (re.++ a!21 a!19)) a!36))))
(let ((a!24 (re.++ (re.* (re.union a!20 (re.++ a!21 a!19))) a!23))
      (a!38 (re.++ (re.* (re.union a!20 (re.++ a!21 a!19))) a!37)))
(let ((a!25 (re.++ (re.union (re.union a!13 a!16)
                             (re.++ (re.union a!5 a!8) a!19))
                   a!24))
      (a!28 (re.union (re.++ a!26 a!11)
                      (re.++ (re.union a!27 (re.++ a!26 a!19)) a!24)))
      (a!32 (re.union (re.++ a!30 a!11)
                      (re.++ (re.union a!31 (re.++ a!30 a!19)) a!24)))
      (a!39 (re.++ (re.union (re.union a!13 a!16)
                             (re.++ (re.union a!5 a!8) a!19))
                   a!38))
      (a!40 (re.++ a!2 (re.++ (re.union a!27 (re.++ a!26 a!19)) a!38)))
      (a!41 (re.++ (str.to_re "n")
                   (re.++ (re.union a!27 (re.++ a!26 a!19)) a!38)))
      (a!45 (re.union (str.to_re "n")
                      (re.++ (re.union a!31 (re.++ a!30 a!19)) a!38))))
(let ((a!29 (re.union (re.union (re.++ (re.union a!5 a!8) a!11) a!25)
                      (re.++ a!2 a!28)))
      (a!33 (re.* (re.union a!32 (re.++ (str.to_re "n") a!28))))
      (a!42 (re.union (re.++ (re.union a!31 (re.++ a!30 a!19)) a!38) a!41)))
(let ((a!34 (re.++ (re.union a!32 (re.++ (str.to_re "n") a!28))
                   (re.++ a!33 (str.to_re "n"))))
      (a!43 (re.++ (re.union a!32 (re.++ (str.to_re "n") a!28))
                   (re.++ a!33 a!42))))
(let ((a!35 (re.++ a!29 (re.++ a!33 (re.union (str.to_re "n") a!34))))
      (a!44 (re.union (re.union a!39 a!40)
                      (re.++ a!29 (re.++ a!33 (re.union a!42 a!43)))))
      (a!46 (re.union a!45 (re.++ a!32 (re.++ a!33 (re.union a!42 a!43)))))
      (a!47 (re.++ a!32 (re.++ a!33 (re.union (str.to_re "n") a!34)))))
(let ((a!48 (re.union a!47 (re.++ a!46 (re.++ (re.* a!46) a!47)))))
(let ((a!49 (re.union (re.union a!2 a!35) (re.++ a!44 (re.++ (re.* a!46) a!48)))))
  (str.in_re varout a!49))))))))))))))))
(set-info :status unknown)
(check-sat)
(pop 1)
(push 1)
(assert (let ((a!1 (re.++ (str.to_re "n")
                  (re.++ (re.* (str.to_re "n")) (str.to_re "r"))))
      (a!3 (re.union (re.union (str.to_re "n") (str.to_re "r"))
                     (re.++ (str.to_re "b")
                            (re.union (str.to_re "b") (str.to_re "r")))))
      (a!4 (re.++ (str.to_re "r")
                  (re.++ (re.* (str.to_re "r")) (str.to_re "b"))))
      (a!12 (re.++ (str.to_re "r")
                   (re.++ (re.* (str.to_re "r")) (str.to_re "n")))))
(let ((a!2 (re.++ (re.++ (str.to_re "b") (str.to_re "n"))
                  (re.++ (re.* (str.to_re "n")) (re.union (str.to_re "r") a!1))))
      (a!5 (re.++ a!3
                  (re.++ (re.* (str.to_re "r")) (re.union (str.to_re "b") a!4))))
      (a!6 (re.++ (str.to_re "b")
                  (re.++ (re.* (str.to_re "r")) (re.union (str.to_re "b") a!4))))
      (a!13 (re.++ a!3
                   (re.++ (re.* (str.to_re "r"))
                          (re.union (str.to_re "n") a!12))))
      (a!14 (re.++ (str.to_re "b")
                   (re.++ (re.* (str.to_re "r"))
                          (re.union (str.to_re "n") a!12))))
      (a!20 (re.++ (re.union (str.to_re "n") (str.to_re "r"))
                   (re.++ (re.* (str.to_re "r"))
                          (re.union (str.to_re "n") a!12))))
      (a!21 (re.++ (re.union (str.to_re "n") (str.to_re "r"))
                   (re.++ (re.* (str.to_re "r")) (re.union (str.to_re "b") a!4))))
      (a!26 (re.++ (re.union (re.union (str.to_re "b") (str.to_re "n"))
                             (str.to_re "r"))
                   (re.++ (re.* (str.to_re "r")) (re.union (str.to_re "b") a!4))))
      (a!27 (re.++ (re.union (re.union (str.to_re "b") (str.to_re "n"))
                             (str.to_re "r"))
                   (re.++ (re.* (str.to_re "r"))
                          (re.union (str.to_re "n") a!12))))
      (a!30 (re.++ (re.union (str.to_re "b") (str.to_re "r"))
                   (re.++ (re.* (str.to_re "r")) (re.union (str.to_re "b") a!4))))
      (a!31 (re.++ (re.union (str.to_re "b") (str.to_re "r"))
                   (re.++ (re.* (str.to_re "r"))
                          (re.union (str.to_re "n") a!12)))))
(let ((a!7 (re.++ (str.to_re "n") (re.++ (re.* (str.to_re "n")) a!6)))
      (a!9 (re.++ (re.* (re.union (str.to_re "n") a!6)) (str.to_re "r")))
      (a!15 (re.++ (str.to_re "n") (re.++ (re.* (str.to_re "n")) a!14)))
      (a!17 (re.++ (re.* (re.union (str.to_re "n") a!6)) a!14)))
(let ((a!8 (re.++ (re.++ (str.to_re "b") (str.to_re "n"))
                  (re.++ (re.* (str.to_re "n")) (re.union a!6 a!7))))
      (a!10 (re.union (str.to_re "r")
                      (re.++ (re.union (str.to_re "n") a!6) a!9)))
      (a!16 (re.++ (re.++ (str.to_re "b") (str.to_re "n"))
                   (re.++ (re.* (str.to_re "n")) (re.union a!14 a!15))))
      (a!18 (re.union a!14 (re.++ (re.union (str.to_re "n") a!6) a!17))))
(let ((a!11 (re.++ (re.* (re.union (str.to_re "n") a!6)) a!10))
      (a!19 (re.++ (re.* (re.union (str.to_re "n") a!6)) a!18)))
(let ((a!22 (re.++ (re.* (re.union a!20 (re.++ a!21 a!19))) (re.++ a!21 a!11)))
      (a!36 (re.++ (re.* (re.union a!20 (re.++ a!21 a!19))) (str.to_re "b"))))
(let ((a!23 (re.union (re.++ a!21 a!11)
                      (re.++ (re.union a!20 (re.++ a!21 a!19)) a!22)))
      (a!37 (re.union (str.to_re "b")
                      (re.++ (re.union a!20 (re.++ a!21 a!19)) a!36))))
(let ((a!24 (re.++ (re.* (re.union a!20 (re.++ a!21 a!19))) a!23))
      (a!38 (re.++ (re.* (re.union a!20 (re.++ a!21 a!19))) a!37)))
(let ((a!25 (re.++ (re.union (re.union a!13 a!16)
                             (re.++ (re.union a!5 a!8) a!19))
                   a!24))
      (a!28 (re.union (re.++ a!26 a!11)
                      (re.++ (re.union a!27 (re.++ a!26 a!19)) a!24)))
      (a!32 (re.union (re.++ a!30 a!11)
                      (re.++ (re.union a!31 (re.++ a!30 a!19)) a!24)))
      (a!39 (re.++ (re.union (re.union a!13 a!16)
                             (re.++ (re.union a!5 a!8) a!19))
                   a!38))
      (a!40 (re.++ a!2 (re.++ (re.union a!27 (re.++ a!26 a!19)) a!38)))
      (a!41 (re.++ (str.to_re "n")
                   (re.++ (re.union a!27 (re.++ a!26 a!19)) a!38)))
      (a!45 (re.union (str.to_re "n")
                      (re.++ (re.union a!14 (re.++ a!6 a!19)) a!38)))
      (a!46 (re.union (re.++ a!6 a!11)
                      (re.++ (re.union a!14 (re.++ a!6 a!19)) a!24)))
      (a!52 (re.union (re.union (str.to_re "n") (re.++ a!30 a!11))
                      (re.++ (re.union a!31 (re.++ a!30 a!19)) a!24))))
(let ((a!29 (re.union (re.union (re.++ (re.union a!5 a!8) a!11) a!25)
                      (re.++ a!2 a!28)))
      (a!33 (re.* (re.union a!32 (re.++ (str.to_re "n") a!28))))
      (a!42 (re.union (re.++ (re.union a!31 (re.++ a!30 a!19)) a!38) a!41)))
(let ((a!34 (re.++ (re.union a!32 (re.++ (str.to_re "n") a!28))
                   (re.++ a!33 (str.to_re "n"))))
      (a!43 (re.++ (re.union a!32 (re.++ (str.to_re "n") a!28))
                   (re.++ a!33 a!42)))
      (a!53 (re.union (re.++ (re.union a!31 (re.++ a!30 a!19)) a!38)
                      (re.++ a!52 (re.++ a!33 a!42)))))
(let ((a!35 (re.++ a!29 (re.++ a!33 (re.union (str.to_re "n") a!34))))
      (a!44 (re.union (re.union a!39 a!40)
                      (re.++ a!29 (re.++ a!33 (re.union a!42 a!43)))))
      (a!47 (re.union a!45 (re.++ a!46 (re.++ a!33 (re.union a!42 a!43)))))
      (a!48 (re.++ a!46 (re.++ a!33 (re.union (str.to_re "n") a!34)))))
(let ((a!49 (re.union a!48 (re.++ a!47 (re.++ (re.* a!47) a!48))))
      (a!51 (re.union (str.to_re "r")
                      (re.++ a!47 (re.++ (re.* a!47) (str.to_re "r"))))))
(let ((a!50 (re.union (re.union a!2 a!35) (re.++ a!44 (re.++ (re.* a!47) a!49))))
      (a!54 (re.* (re.++ a!53 (re.++ (re.* a!47) a!51))))
      (a!55 (re.union (re.++ a!52 (re.++ a!33 (str.to_re "n")))
                      (re.++ a!53 (re.++ (re.* a!47) a!49)))))
(let ((a!56 (re.++ (re.++ a!53 (re.++ (re.* a!47) a!51)) (re.++ a!54 a!55))))
(let ((a!57 (re.++ (re.++ a!44 (re.++ (re.* a!47) a!51))
                   (re.++ a!54 (re.union a!55 a!56)))))
  (str.in_re varout (re.union a!50 a!57)))))))))))))))))))
(set-info :status unknown)
(check-sat)
(pop 1)
(exit)
